c "205041.clq"
p edge 150 584
e 1 5
e 1 21
e 1 22
e 1 23
e 1 27
e 1 42
e 1 49
e 1 61
e 1 69
e 1 71
e 1 103
e 1 121
e 1 137
e 2 5
e 2 6
e 2 7
e 2 22
e 2 29
e 2 50
e 2 77
e 3 5
e 3 6
e 3 7
e 3 8
e 3 9
e 3 10
e 3 13
e 3 15
e 3 20
e 3 21
e 3 22
e 3 23
e 3 27
e 3 29
e 3 30
e 3 33
e 3 34
e 3 36
e 3 54
e 3 55
e 3 63
e 3 68
e 3 75
e 3 78
e 3 80
e 3 88
e 3 99
e 3 101
e 3 119
e 3 120
e 3 126
e 3 129
e 3 132
e 3 134
e 3 139
e 3 141
e 4 5
e 4 6
e 4 7
e 4 8
e 4 9
e 4 13
e 4 44
e 4 51
e 4 52
e 4 54
e 4 59
e 4 65
e 4 108
e 5 6
e 5 10
e 5 20
e 5 26
e 5 32
e 5 36
e 5 39
e 5 41
e 5 46
e 5 48
e 5 64
e 5 65
e 5 73
e 5 79
e 5 96
e 5 101
e 5 111
e 5 126
e 5 127
e 5 146
e 6 7
e 6 8
e 6 9
e 6 10
e 6 13
e 6 14
e 6 16
e 6 18
e 6 19
e 6 24
e 6 26
e 6 31
e 6 33
e 6 37
e 6 55
e 6 56
e 6 61
e 6 70
e 6 71
e 6 76
e 6 80
e 6 86
e 6 89
e 6 94
e 6 101
e 6 116
e 6 124
e 6 130
e 6 135
e 6 136
e 7 8
e 7 9
e 7 10
e 7 11
e 7 12
e 7 15
e 7 19
e 7 22
e 7 24
e 7 27
e 7 29
e 7 34
e 7 35
e 7 37
e 7 38
e 7 40
e 7 51
e 7 58
e 7 59
e 7 61
e 7 72
e 7 75
e 7 80
e 7 81
e 7 82
e 7 91
e 7 96
e 7 117
e 7 127
e 8 11
e 8 14
e 8 16
e 8 17
e 8 31
e 8 35
e 8 39
e 8 44
e 8 49
e 8 58
e 8 62
e 8 64
e 8 91
e 8 118
e 8 123
e 8 128
e 8 132
e 9 11
e 9 12
e 9 13
e 9 17
e 9 23
e 9 24
e 9 44
e 9 45
e 9 49
e 9 57
e 9 62
e 9 68
e 9 69
e 9 105
e 9 129
e 9 136
e 9 140
e 9 144
e 10 11
e 10 12
e 10 14
e 10 15
e 10 18
e 10 24
e 10 26
e 10 28
e 10 33
e 10 45
e 10 51
e 10 60
e 10 72
e 10 83
e 10 90
e 10 95
e 10 105
e 10 115
e 10 131
e 10 137
e 10 148
e 11 12
e 11 15
e 11 16
e 11 17
e 11 18
e 11 21
e 11 30
e 11 38
e 11 44
e 11 50
e 11 56
e 11 66
e 11 72
e 11 93
e 11 94
e 11 105
e 11 106
e 11 108
e 11 119
e 11 123
e 11 131
e 11 138
e 11 147
e 11 149
e 12 14
e 12 16
e 12 20
e 12 25
e 12 35
e 12 54
e 12 57
e 12 61
e 12 68
e 12 89
e 12 92
e 12 95
e 12 96
e 12 116
e 13 17
e 13 19
e 13 20
e 13 25
e 13 26
e 13 31
e 13 36
e 13 39
e 13 46
e 13 47
e 13 53
e 13 58
e 13 63
e 13 66
e 13 69
e 13 76
e 13 77
e 13 79
e 13 88
e 13 90
e 13 105
e 13 110
e 13 111
e 13 113
e 13 117
e 13 128
e 13 142
e 14 28
e 14 34
e 14 37
e 14 46
e 14 47
e 14 49
e 14 50
e 14 68
e 14 70
e 14 142
e 15 18
e 15 56
e 15 59
e 15 72
e 15 97
e 15 103
e 15 107
e 15 112
e 15 134
e 16 19
e 16 55
e 16 110
e 16 113
e 16 114
e 16 118
e 16 121
e 16 125
e 17 21
e 17 27
e 17 29
e 17 30
e 17 35
e 17 37
e 17 38
e 17 41
e 17 48
e 17 52
e 17 53
e 17 57
e 17 67
e 17 71
e 17 73
e 17 76
e 17 98
e 17 141
e 17 143
e 17 148
e 18 25
e 18 32
e 18 48
e 18 56
e 18 60
e 18 70
e 18 88
e 18 92
e 18 98
e 18 103
e 18 109
e 18 117
e 18 124
e 18 132
e 18 139
e 18 140
e 18 150
e 19 23
e 19 41
e 19 43
e 19 140
e 20 40
e 21 25
e 21 33
e 21 47
e 21 81
e 21 100
e 22 32
e 22 34
e 22 36
e 22 40
e 22 45
e 22 50
e 22 66
e 22 91
e 22 111
e 22 130
e 22 135
e 23 28
e 23 32
e 23 52
e 23 78
e 23 83
e 23 96
e 23 147
e 24 28
e 24 59
e 24 85
e 24 92
e 24 104
e 24 133
e 24 143
e 25 42
e 25 86
e 25 90
e 25 111
e 26 41
e 26 42
e 26 52
e 26 82
e 26 87
e 26 91
e 26 97
e 26 123
e 27 42
e 27 43
e 27 69
e 27 94
e 27 135
e 28 40
e 28 120
e 28 136
e 28 138
e 29 30
e 29 31
e 29 38
e 29 45
e 29 132
e 29 150
e 30 39
e 30 43
e 30 53
e 30 63
e 30 73
e 30 74
e 30 76
e 30 82
e 30 100
e 30 102
e 30 112
e 30 114
e 30 122
e 30 124
e 31 75
e 31 88
e 31 126
e 32 93
e 32 140
e 33 64
e 33 137
e 34 43
e 34 53
e 34 55
e 34 67
e 34 70
e 34 94
e 34 95
e 34 122
e 34 138
e 35 47
e 35 74
e 35 84
e 36 65
e 36 116
e 37 62
e 37 89
e 37 99
e 37 115
e 37 122
e 37 142
e 38 46
e 38 63
e 38 79
e 38 81
e 38 98
e 38 99
e 38 107
e 38 148
e 41 51
e 41 78
e 41 97
e 42 110
e 42 112
e 43 112
e 44 54
e 44 65
e 44 93
e 44 139
e 45 75
e 45 85
e 45 125
e 46 67
e 46 77
e 46 78
e 46 81
e 46 89
e 46 99
e 46 113
e 47 48
e 49 57
e 49 60
e 49 85
e 49 86
e 50 83
e 50 121
e 50 144
e 52 60
e 53 58
e 53 64
e 53 100
e 53 106
e 53 119
e 53 126
e 53 127
e 54 67
e 55 137
e 56 62
e 56 119
e 56 150
e 57 82
e 57 86
e 57 107
e 57 125
e 58 118
e 58 134
e 58 145
e 59 71
e 59 73
e 59 98
e 59 108
e 59 113
e 59 121
e 59 133
e 59 146
e 59 149
e 60 103
e 60 104
e 61 116
e 63 80
e 63 85
e 63 102
e 63 108
e 64 66
e 64 102
e 64 104
e 65 90
e 66 95
e 66 128
e 66 141
e 66 144
e 69 84
e 69 87
e 69 93
e 69 102
e 69 104
e 70 74
e 70 84
e 70 106
e 71 83
e 73 74
e 73 77
e 73 79
e 74 87
e 74 149
e 77 87
e 78 84
e 78 92
e 78 138
e 79 109
e 79 131
e 80 134
e 81 115
e 82 109
e 82 133
e 83 142
e 84 128
e 85 106
e 86 97
e 87 114
e 88 101
e 88 120
e 88 127
e 88 141
e 88 147
e 90 100
e 90 118
e 90 148
e 93 133
e 97 124
e 97 135
e 99 107
e 101 115
e 101 123
e 103 125
e 105 146
e 106 109
e 107 110
e 108 117
e 111 146
e 112 114
e 112 130
e 116 120
e 116 143
e 116 144
e 117 122
e 118 130
e 118 147
e 119 129
e 119 131
e 122 149
e 125 129
e 126 139
e 126 150
e 127 145
e 128 136
e 132 145
e 140 143
e 143 145
